
!!!!!!!!!!!!!!!!!!!!!!!!!!!!!!!!!!!!!!!!!!!!!!!!!!!!!!
!!! This is a CASTEP .cell file created by Jacek
!!!!!!!!!!!!!!!!!!!!!!!!!!!!!!!!!!!!!!!!!!!!!!!!!!!!!!

! -------- File begins below

!!!!!!!!!!!!!!!!!!!!!!!!!!!!!!!!!!!!!!!!!!!!!!!!!!!!!!
!!! Size of k-point mesh
!!!!!!!!!!!!!!!!!!!!!!!!!!!!!!!!!!!!!!!!!!!!!!!!!!!!!!

kpoints_mp_grid = 1 1 1

!!!!!!!!!!!!!!!!!!!!!!!!!!!!!!!!!!!!!!!!!!!!!!!!!!!!!!
!!! Lattice vector in cartesian coordinants
!!!!!!!!!!!!!!!!!!!!!!!!!!!!!!!!!!!!!!!!!!!!!!!!!!!!!!

%block lattice_cart
ang
3.7354	0	0
0	5.97475	0
0	0	3.9447
%endblock lattice_cart


!!!!!!!!!!!!!!!!!!!!!!!!!!!!!!!!!!!!!!!!!!!!!!!!!!!!!!
!!! Atomic positions in absolute units
!!!!!!!!!!!!!!!!!!!!!!!!!!!!!!!!!!!!!!!!!!!!!!!!!!!!!!

%block positions_abs
C	1.16	5.12326	0.5608
C	1.6806	5.00888	1.9665
H	1.147	4.16587	0.0
H	0.0736	5.40751	0.4778
H	2.6957	4.87585	1.9893
H	1.459	5.87475	2.6409
C	1.0229	3.87864	2.8492
C	1.4139	2.56185	2.2908
H	0.0	4.10714	2.9327
H	1.4989	4.02999	3.8447
H	0.85	1.83142	2.9312
H	0.9734	2.46953	1.2944
C	2.9482	2.13961	2.1631
C	3.1588	0.68595	2.4885
H	3.6354	2.71621	2.8148
H	3.1687	2.31108	1.1444
H	2.7187	0.40833	3.4871
H	2.5707	0.0	1.792
%endblock positions_abs



