
!!!!!!!!!!!!!!!!!!!!!!!!!!!!!!!!!!!!!!!!!!!!!!!!!!!!!!
!!! This is a CASTEP .cell file created by Jacek
!!!!!!!!!!!!!!!!!!!!!!!!!!!!!!!!!!!!!!!!!!!!!!!!!!!!!!

! -------- File begins below

!!!!!!!!!!!!!!!!!!!!!!!!!!!!!!!!!!!!!!!!!!!!!!!!!!!!!!
!!! Size of k-point mesh
!!!!!!!!!!!!!!!!!!!!!!!!!!!!!!!!!!!!!!!!!!!!!!!!!!!!!!

kpoints_mp_grid = 1 2 3

!!!!!!!!!!!!!!!!!!!!!!!!!!!!!!!!!!!!!!!!!!!!!!!!!!!!!!
!!! Lattice vector in cartesian coordinants
!!!!!!!!!!!!!!!!!!!!!!!!!!!!!!!!!!!!!!!!!!!!!!!!!!!!!!

%block lattice_cart
ang
24.4500002594	0.0	0.0
0.0	24.4500002594	0.0
0.0	0.0	19.8644953717
%endblock lattice_cart


!!!!!!!!!!!!!!!!!!!!!!!!!!!!!!!!!!!!!!!!!!!!!!!!!!!!!!
!!! Atomic positions in absolute units
!!!!!!!!!!!!!!!!!!!!!!!!!!!!!!!!!!!!!!!!!!!!!!!!!!!!!!

%block positions_abs
H	12.7905870096	4.98153473978	3.72435285915
H	12.792164364	3.22250828594	3.72437016016
H	12.7872148301	4.98148010052	6.13278371838
H	12.7890792663	3.22269491419	6.13279056401
C	8.16057621122	3.38303127926	2.44505876798
C	8.16058688595	4.8170198107	2.44506409528
C	8.04365462553	5.50511345634	3.66828319957
C	8.04362500931	2.69496929602	3.66827176307
C	8.44393050693	3.38772252099	4.92206064222
C	8.44390024185	4.81237562886	4.92206074075
C	8.04250961638	5.50503639834	6.17526480459
C	8.04247599322	2.69505228601	6.17527352604
C	8.15905341166	3.38312261204	7.39838928052
C	8.15906067516	4.81693634103	7.39838600522
C	9.94206277283	4.09994372603	4.92452734122
C	10.8533750613	4.10025323404	3.72922448731
C	10.8507193347	4.10002179926	6.12235362525
C	12.309904458	4.1015916037	4.17337341527
C	12.3081569375	4.10157140768	5.68174430571
O	10.5904215241	4.09952067854	2.53301426026
O	10.5857370652	4.09893618895	7.31819074578
H	8.05179065851	3.10725049839	1.49001391855
H	8.05182891088	5.093530981	1.49022731574
H	7.83645638701	6.23466799718	3.01650174701
H	7.83624943501	1.96592596492	3.01597490384
H	7.8343536175	6.23582775546	6.82535331586
H	7.83413866503	1.96477217621	6.82587825927
H	8.04946345544	3.10682779173	8.35319356087
H	8.0494974441	5.09396533398	8.35298059742
%endblock positions_abs


!!!!!!!!!!!!!!!!!!!!!!!!!!!!!!!!!!!!!!!!!!!!!!!!!!!!!!
!!! Ionic constraints
!!!!!!!!!!!!!!!!!!!!!!!!!!!!!!!!!!!!!!!!!!!!!!!!!!!!!!

%block ionic_constraints
1	H	1	1	0	0	
2	H	1	0	1	0	
3	H	1	0	0	1	
4	H	2	1	0	0	
5	H	2	0	1	0	
6	H	2	0	0	1	
7	H	3	1	0	0	
8	H	3	0	1	0	
9	H	3	0	0	1	
10	H	4	1	0	0	
11	H	4	0	1	0	
12	H	4	0	0	1	
13	C	1	1	0	0	
14	C	1	0	1	0	
15	C	1	0	0	1	
16	C	2	1	0	0	
17	C	2	0	1	0	
18	C	2	0	0	1	
19	C	3	1	0	0	
20	C	3	0	1	0	
21	C	3	0	0	1	
22	C	4	1	0	0	
23	C	4	0	1	0	
24	C	4	0	0	1	
25	C	5	1	0	0	
26	C	5	0	1	0	
27	C	5	0	0	1	
28	C	6	1	0	0	
29	C	6	0	1	0	
30	C	6	0	0	1	
31	C	7	1	0	0	
32	C	7	0	1	0	
33	C	7	0	0	1	
34	C	8	1	0	0	
35	C	8	0	1	0	
36	C	8	0	0	1	
37	C	9	1	0	0	
38	C	9	0	1	0	
39	C	9	0	0	1	
40	C	10	1	0	0	
41	C	10	0	1	0	
42	C	10	0	0	1	
43	C	11	1	0	0	
44	C	11	0	1	0	
45	C	11	0	0	1	
46	C	12	1	0	0	
47	C	12	0	1	0	
48	C	12	0	0	1	
49	C	13	1	0	0	
50	C	13	0	1	0	
51	C	13	0	0	1	
52	C	14	1	0	0	
53	C	14	0	1	0	
54	C	14	0	0	1	
55	C	15	1	0	0	
56	C	15	0	1	0	
57	C	15	0	0	1	
58	O	1	1	0	0	
59	O	1	0	1	0	
60	O	1	0	0	1	
61	O	2	1	0	0	
62	O	2	0	1	0	
63	O	2	0	0	1	
%endblock ionic_constraints


!!!!!!!!!!!!!!!!!!!!!!!!!!!!!!!!!!!!!!!!!!!!!!!!!!!!!!
!!! Extra parameters
!!!!!!!!!!!!!!!!!!!!!!!!!!!!!!!!!!!!!!!!!!!!!!!!!!!!!!


FIX_ALL_CELL : TRUE

snap_to_symmetry

