
!!!!!!!!!!!!!!!!!!!!!!!!!!!!!!!!!!!!!!!!!!!!!!!!!!!!!!
!!! This is a CASTEP .cell file created by Jacek
!!!!!!!!!!!!!!!!!!!!!!!!!!!!!!!!!!!!!!!!!!!!!!!!!!!!!!

! -------- File begins below

!!!!!!!!!!!!!!!!!!!!!!!!!!!!!!!!!!!!!!!!!!!!!!!!!!!!!!
!!! Size of k-point mesh
!!!!!!!!!!!!!!!!!!!!!!!!!!!!!!!!!!!!!!!!!!!!!!!!!!!!!!

kpoints_mp_grid = 1 1 1

!!!!!!!!!!!!!!!!!!!!!!!!!!!!!!!!!!!!!!!!!!!!!!!!!!!!!!
!!! Lattice vector in cartesian coordinants
!!!!!!!!!!!!!!!!!!!!!!!!!!!!!!!!!!!!!!!!!!!!!!!!!!!!!!

%block lattice_cart
ang
25.0000001326	0.0	0.0
0.0	20.0000001061	0.0
0.0	0.0	12.2975000652
%endblock lattice_cart


!!!!!!!!!!!!!!!!!!!!!!!!!!!!!!!!!!!!!!!!!!!!!!!!!!!!!!
!!! Atomic positions in absolute units
!!!!!!!!!!!!!!!!!!!!!!!!!!!!!!!!!!!!!!!!!!!!!!!!!!!!!!

%block positions_abs
H	5.14057660451	10.0676675686	7.26495576215
H	4.35599716309	10.8323941944	4.56461113064
H	6.10697493724	10.6767270538	4.63283966494
H	6.18965463549	12.1199439224	6.66054734483
H	4.43282400535	12.1985647298	6.71213159622
H	4.39398180971	13.4268098106	4.54561759025
H	6.15162283075	13.3323701947	4.4408030986
H	5.45613744651	15.5649015141	5.38466149603
H	4.57611147285	14.7457415679	6.6882970615
H	6.34345715553	14.6354904672	6.61067971178
C	5.06058779226	9.64908390466	6.25334382502
C	5.2101956619	10.8086915236	5.25663869879
C	5.29057959664	12.1335891453	6.02050605979
C	5.31275134705	13.3882683264	5.15292038098
C	5.42843818797	14.6556248185	5.99883247298
C	3.83653493335	8.79263299778	6.20506114378
C	5.93714374608	8.43749803817	6.19809772141
C	3.31857876383	8.34011667024	4.96695405743
C	6.27427690458	7.83327403657	4.96246540976
C	4.10332961521	8.32237146419	8.64910650619
C	5.52306724326	8.07727812382	8.64723114433
C	3.31226756281	8.329700485	7.43654982489
C	6.27138741064	7.82141110871	7.43272248998
C	4.10760748291	8.3266656089	3.75233250904
C	5.52436025532	8.0830917421	3.74976679129
H	2.56848676622	8.01138864128	4.39310749423
H	6.85367986998	7.26776232654	4.37553380428
H	3.76713163378	8.03943071497	9.54739123261
H	5.72071232906	7.69952532332	9.55179691959
H	2.54248591493	7.98885412841	7.97623489581
H	6.86521062831	7.23496685949	7.98359191981
H	3.78420477519	8.05474471184	2.84598284452
H	5.71544159102	7.72090312166	2.83745800235
%endblock positions_abs


!!!!!!!!!!!!!!!!!!!!!!!!!!!!!!!!!!!!!!!!!!!!!!!!!!!!!!
!!! Ionic constraints
!!!!!!!!!!!!!!!!!!!!!!!!!!!!!!!!!!!!!!!!!!!!!!!!!!!!!!

%block ionic_constraints
1	H	1	1	0	0	
2	H	1	0	1	0	
3	H	1	0	0	1	
4	H	2	1	0	0	
5	H	2	0	1	0	
6	H	2	0	0	1	
7	H	3	1	0	0	
8	H	3	0	1	0	
9	H	3	0	0	1	
10	H	4	1	0	0	
11	H	4	0	1	0	
12	H	4	0	0	1	
13	H	5	1	0	0	
14	H	5	0	1	0	
15	H	5	0	0	1	
16	H	6	1	0	0	
17	H	6	0	1	0	
18	H	6	0	0	1	
19	H	7	1	0	0	
20	H	7	0	1	0	
21	H	7	0	0	1	
22	H	8	1	0	0	
23	H	8	0	1	0	
24	H	8	0	0	1	
25	H	9	1	0	0	
26	H	9	0	1	0	
27	H	9	0	0	1	
28	H	10	1	0	0	
29	H	10	0	1	0	
30	H	10	0	0	1	
31	C	1	1	0	0	
32	C	1	0	1	0	
33	C	1	0	0	1	
34	C	2	1	0	0	
35	C	2	0	1	0	
36	C	2	0	0	1	
37	C	3	1	0	0	
38	C	3	0	1	0	
39	C	3	0	0	1	
40	C	4	1	0	0	
41	C	4	0	1	0	
42	C	4	0	0	1	
43	C	5	1	0	0	
44	C	5	0	1	0	
45	C	5	0	0	1	
46	C	6	1	0	0	
47	C	6	0	1	0	
48	C	6	0	0	1	
49	C	7	1	0	0	
50	C	7	0	1	0	
51	C	7	0	0	1	
52	C	8	1	0	0	
53	C	8	0	1	0	
54	C	8	0	0	1	
55	C	9	1	0	0	
56	C	9	0	1	0	
57	C	9	0	0	1	
58	C	10	1	0	0	
59	C	10	0	1	0	
60	C	10	0	0	1	
61	C	11	1	0	0	
62	C	11	0	1	0	
63	C	11	0	0	1	
64	C	12	1	0	0	
65	C	12	0	1	0	
66	C	12	0	0	1	
67	C	13	1	0	0	
68	C	13	0	1	0	
69	C	13	0	0	1	
70	C	14	1	0	0	
71	C	14	0	1	0	
72	C	14	0	0	1	
73	C	15	1	0	0	
74	C	15	0	1	0	
75	C	15	0	0	1	
%endblock ionic_constraints


!!!!!!!!!!!!!!!!!!!!!!!!!!!!!!!!!!!!!!!!!!!!!!!!!!!!!!
!!! Extra parameters
!!!!!!!!!!!!!!!!!!!!!!!!!!!!!!!!!!!!!!!!!!!!!!!!!!!!!!

FIX_ALL_CELL : TRUE
snap_to_symmetry

