
!!!!!!!!!!!!!!!!!!!!!!!!!!!!!!!!!!!!!!!!!!!!!!!!!!!!!!
!!! This is a CASTEP .cell file created by Jacek
!!!!!!!!!!!!!!!!!!!!!!!!!!!!!!!!!!!!!!!!!!!!!!!!!!!!!!

! -------- File begins below

!!!!!!!!!!!!!!!!!!!!!!!!!!!!!!!!!!!!!!!!!!!!!!!!!!!!!!
!!! Size of k-point mesh
!!!!!!!!!!!!!!!!!!!!!!!!!!!!!!!!!!!!!!!!!!!!!!!!!!!!!!

kpoints_mp_grid = 1 1 1

!!!!!!!!!!!!!!!!!!!!!!!!!!!!!!!!!!!!!!!!!!!!!!!!!!!!!!
!!! Lattice vector in cartesian coordinants
!!!!!!!!!!!!!!!!!!!!!!!!!!!!!!!!!!!!!!!!!!!!!!!!!!!!!!

%block lattice_cart
ang
25.0000001	0.0	0.0
0.0	20.0000001	0.0
0.0	0.0	12.2975001
%endblock lattice_cart


!!!!!!!!!!!!!!!!!!!!!!!!!!!!!!!!!!!!!!!!!!!!!!!!!!!!!!
!!! Atomic positions in absolute units
!!!!!!!!!!!!!!!!!!!!!!!!!!!!!!!!!!!!!!!!!!!!!!!!!!!!!!

%block positions_abs
H	5.14057502056	10.0676600503	7.26495724158
H	4.35600001742	10.8324000542	4.56461068212
H	6.10697502443	10.6767200534	4.63283721267
H	6.18965002476	12.1199400606	6.66054740916
H	4.43282501773	12.198560061	6.71213542208
H	4.39397501758	13.4268000671	4.54562334196
H	6.15162502461	13.3323800667	4.44079945111
H	5.45612502182	15.5649000778	5.38465717879
H	4.5761000183	14.7457400737	6.68830286689
H	6.34345002537	14.6355000732	6.61068104626
H	2.2761000091	8.0206800401	4.90901446992
H	7.1492750286	7.18250003591	4.9061245574
H	3.58237501433	8.16564004083	9.59565324553
H	5.96357502385	7.75328003877	9.5919639955
H	2.28180000913	7.97240003986	7.48590642587
H	7.1247500285	7.14228003571	7.48205730834
H	3.58170001433	8.17526004088	2.80776522283
H	5.96590002386	7.76332003882	2.8041251628
C	5.06060002024	9.64908004825	6.25334028835
C	5.21020002084	10.808700054	5.25664020275
C	5.29057502116	12.1335800607	6.02051171896
C	5.31275002125	13.3882600669	5.1529230869
C	5.42845002171	14.6556200733	5.99883122628
C	3.83652501535	8.79264004396	6.20506030296
C	5.93715002375	8.43750004219	6.1980999179
C	3.31857501327	8.3401200417	4.96694799289
C	6.2742750251	7.83328003917	4.96245940535
C	4.10332501641	8.32238004161	8.64910236533
C	5.52307502209	8.07728004039	8.64723314532
C	3.31227501325	8.32970004165	7.43654426047
C	6.27137502509	7.82142003911	7.43271973794
C	4.10760001643	8.32666004163	3.75233620551
C	5.5243500221	8.08310004042	3.74976602799
%endblock positions_abs


!!!!!!!!!!!!!!!!!!!!!!!!!!!!!!!!!!!!!!!!!!!!!!!!!!!!!!
!!! Ionic constraints
!!!!!!!!!!!!!!!!!!!!!!!!!!!!!!!!!!!!!!!!!!!!!!!!!!!!!!

%block ionic_constraints
1	H	1	1	0	0	
2	H	1	0	1	0	
3	H	1	0	0	1	
4	H	2	1	0	0	
5	H	2	0	1	0	
6	H	2	0	0	1	
7	H	3	1	0	0	
8	H	3	0	1	0	
9	H	3	0	0	1	
10	H	4	1	0	0	
11	H	4	0	1	0	
12	H	4	0	0	1	
13	H	5	1	0	0	
14	H	5	0	1	0	
15	H	5	0	0	1	
16	H	6	1	0	0	
17	H	6	0	1	0	
18	H	6	0	0	1	
19	H	7	1	0	0	
20	H	7	0	1	0	
21	H	7	0	0	1	
22	H	8	1	0	0	
23	H	8	0	1	0	
24	H	8	0	0	1	
25	H	9	1	0	0	
26	H	9	0	1	0	
27	H	9	0	0	1	
28	H	10	1	0	0	
29	H	10	0	1	0	
30	H	10	0	0	1	
31	C	1	1	0	0	
32	C	1	0	1	0	
33	C	1	0	0	1	
34	C	2	1	0	0	
35	C	2	0	1	0	
36	C	2	0	0	1	
37	C	3	1	0	0	
38	C	3	0	1	0	
39	C	3	0	0	1	
40	C	4	1	0	0	
41	C	4	0	1	0	
42	C	4	0	0	1	
43	C	5	1	0	0	
44	C	5	0	1	0	
45	C	5	0	0	1	
46	C	6	1	0	0	
47	C	6	0	1	0	
48	C	6	0	0	1	
49	C	7	1	0	0	
50	C	7	0	1	0	
51	C	7	0	0	1	
52	C	8	1	0	0	
53	C	8	0	1	0	
54	C	8	0	0	1	
55	C	9	1	0	0	
56	C	9	0	1	0	
57	C	9	0	0	1	
58	C	10	1	0	0	
59	C	10	0	1	0	
60	C	10	0	0	1	
61	C	11	1	0	0	
62	C	11	0	1	0	
63	C	11	0	0	1	
64	C	12	1	0	0	
65	C	12	0	1	0	
66	C	12	0	0	1	
67	C	13	1	0	0	
68	C	13	0	1	0	
69	C	13	0	0	1	
70	C	14	1	0	0	
71	C	14	0	1	0	
72	C	14	0	0	1	
73	C	15	1	0	0	
74	C	15	0	1	0	
75	C	15	0	0	1	
%endblock ionic_constraints


!!!!!!!!!!!!!!!!!!!!!!!!!!!!!!!!!!!!!!!!!!!!!!!!!!!!!!
!!! Extra parameters
!!!!!!!!!!!!!!!!!!!!!!!!!!!!!!!!!!!!!!!!!!!!!!!!!!!!!!


FIX_ALL_CELL : TRUE
snap_to_symmetry

