#
# CELL written by cell_write: Keith Refson, Oct 2006
#
%BLOCK lattice_cart
   ANG
       25.0000001326000        0.00000000000000        0.00000000000000    
       0.00000000000000        20.0000001061000        0.00000000000000    
       0.00000000000000        0.00000000000000        12.2975000652000    
%ENDBLOCK lattice_cart

%BLOCK cell_constraints
      0   0   0
      0   0   0
%ENDBLOCK cell_constraints

%BLOCK positions_frac
   H              0.205623063089775       0.503383375759551       0.590766881368734
   H              0.174239885599432       0.541619706846707       0.371182037522987
   H              0.244278996193944       0.533836349857998       0.376730200477918
   H              0.247586184106403       0.605997192905185       0.541617996301403
   H              0.177312959273532       0.609928233254331       0.545812690435699
   H              0.175759271456173       0.671340486968539       0.369637533331948
   H              0.246064911924872       0.666618506198589       0.361114297625969
   H              0.218245496702826       0.778245071576410       0.437866352305844
   H              0.183044457943132       0.737287074483692       0.543874529460409
   H              0.253738284875372       0.731774519477936       0.537562893005155
   H              0.091043700009169       0.401034138655779       0.399188166420709
   H              0.285970592595154       0.359124870483513       0.398953122680314
   H              0.143295249493097       0.408281921669724       0.780293208391816
   H              0.238543155035932       0.387663558705391       0.779993073331253
   H              0.091271752463087       0.398620401216753       0.608733919465307
   H              0.284990163560451       0.357113856623527       0.608421371431760
   H              0.143267608419825       0.408763123262342       0.228320111652518
   H              0.238635517690881       0.388165866857836       0.228024144843649
   C              0.202423510616746       0.482454192673581       0.508505289031548
   C              0.208407825370605       0.540434573312995       0.427455878911964
   C              0.211623182743151       0.606679454046566       0.489571541196986
   C              0.212510052754847       0.669413412768762       0.419021781147370
   C              0.217137526367103       0.732781237037595       0.487809102758678
   C              0.153461396520041       0.439631647556754       0.504579069801297
   C              0.237485748583576       0.421874899670454       0.504012822813447
   C              0.132743149849130       0.417005831299784       0.403899494295243
   C              0.250971074852049       0.391663699750724       0.403534489404314
   C              0.164133183737838       0.416118571001991       0.703322338713835
   C              0.220922688558626       0.403863904048502       0.703169839274920
   C              0.132490701809669       0.416485022040547       0.604720454194936
   C              0.250855495095062       0.391070553360871       0.604409225498883
   C              0.164304298444930       0.416333278236352       0.305129700276117
   C              0.220974409040752       0.404154584960960       0.304921062932234
%ENDBLOCK positions_frac

FIX_COM : false

%BLOCK ionic_constraints
        1 H              1        1.00000000    0.00000000    0.00000000
        2 H              1        0.00000000    1.00000000    0.00000000
        3 H              1        0.00000000    0.00000000    1.00000000
        4 H              2        1.00000000    0.00000000    0.00000000
        5 H              2        0.00000000    1.00000000    0.00000000
        6 H              2        0.00000000    0.00000000    1.00000000
        7 H              3        1.00000000    0.00000000    0.00000000
        8 H              3        0.00000000    1.00000000    0.00000000
        9 H              3        0.00000000    0.00000000    1.00000000
       10 H              4        1.00000000    0.00000000    0.00000000
       11 H              4        0.00000000    1.00000000    0.00000000
       12 H              4        0.00000000    0.00000000    1.00000000
       13 H              5        1.00000000    0.00000000    0.00000000
       14 H              5        0.00000000    1.00000000    0.00000000
       15 H              5        0.00000000    0.00000000    1.00000000
       16 H              6        1.00000000    0.00000000    0.00000000
       17 H              6        0.00000000    1.00000000    0.00000000
       18 H              6        0.00000000    0.00000000    1.00000000
       19 H              7        1.00000000    0.00000000    0.00000000
       20 H              7        0.00000000    1.00000000    0.00000000
       21 H              7        0.00000000    0.00000000    1.00000000
       22 H              8        1.00000000    0.00000000    0.00000000
       23 H              8        0.00000000    1.00000000    0.00000000
       24 H              8        0.00000000    0.00000000    1.00000000
       25 H              9        1.00000000    0.00000000    0.00000000
       26 H              9        0.00000000    1.00000000    0.00000000
       27 H              9        0.00000000    0.00000000    1.00000000
       28 H             10        1.00000000    0.00000000    0.00000000
       29 H             10        0.00000000    1.00000000    0.00000000
       30 H             10        0.00000000    0.00000000    1.00000000
       31 C              1        1.00000000    0.00000000    0.00000000
       32 C              1        0.00000000    1.00000000    0.00000000
       33 C              1        0.00000000    0.00000000    1.00000000
       34 C              2        1.00000000    0.00000000    0.00000000
       35 C              2        0.00000000    1.00000000    0.00000000
       36 C              2        0.00000000    0.00000000    1.00000000
       37 C              3        1.00000000    0.00000000    0.00000000
       38 C              3        0.00000000    1.00000000    0.00000000
       39 C              3        0.00000000    0.00000000    1.00000000
       40 C              4        1.00000000    0.00000000    0.00000000
       41 C              4        0.00000000    1.00000000    0.00000000
       42 C              4        0.00000000    0.00000000    1.00000000
       43 C              5        1.00000000    0.00000000    0.00000000
       44 C              5        0.00000000    1.00000000    0.00000000
       45 C              5        0.00000000    0.00000000    1.00000000
       46 C              6        1.00000000    0.00000000    0.00000000
       47 C              6        0.00000000    1.00000000    0.00000000
       48 C              6        0.00000000    0.00000000    1.00000000
       49 C              7        1.00000000    0.00000000    0.00000000
       50 C              7        0.00000000    1.00000000    0.00000000
       51 C              7        0.00000000    0.00000000    1.00000000
       52 C              8        1.00000000    0.00000000    0.00000000
       53 C              8        0.00000000    1.00000000    0.00000000
       54 C              8        0.00000000    0.00000000    1.00000000
       55 C              9        1.00000000    0.00000000    0.00000000
       56 C              9        0.00000000    1.00000000    0.00000000
       57 C              9        0.00000000    0.00000000    1.00000000
       58 C             10        1.00000000    0.00000000    0.00000000
       59 C             10        0.00000000    1.00000000    0.00000000
       60 C             10        0.00000000    0.00000000    1.00000000
       61 C             11        1.00000000    0.00000000    0.00000000
       62 C             11        0.00000000    1.00000000    0.00000000
       63 C             11        0.00000000    0.00000000    1.00000000
       64 C             12        1.00000000    0.00000000    0.00000000
       65 C             12        0.00000000    1.00000000    0.00000000
       66 C             12        0.00000000    0.00000000    1.00000000
       67 C             13        1.00000000    0.00000000    0.00000000
       68 C             13        0.00000000    1.00000000    0.00000000
       69 C             13        0.00000000    0.00000000    1.00000000
       70 C             14        1.00000000    0.00000000    0.00000000
       71 C             14        0.00000000    1.00000000    0.00000000
       72 C             14        0.00000000    0.00000000    1.00000000
       73 C             15        1.00000000    0.00000000    0.00000000
       74 C             15        0.00000000    1.00000000    0.00000000
       75 C             15        0.00000000    0.00000000    1.00000000
%ENDBLOCK ionic_constraints

%BLOCK species_pot
   H       NULL.NULL
   C       NULL.NULL
%ENDBLOCK species_pot

kpoint_mp_grid :    1   1   1

